p cnf 132 726
-12 -23 0
-12 -34 0
-12 -45 0
-12 -56 0
-12 -67 0
-12 -78 0
-12 -89 0
-12 -111 0
-12 -122 0
-23 -34 0
-23 -45 0
-23 -56 0
-23 -67 0
-23 -78 0
-23 -89 0
-23 -111 0
-23 -122 0
-34 -45 0
-34 -56 0
-34 -67 0
-34 -78 0
-34 -89 0
-34 -111 0
-34 -122 0
-45 -56 0
-45 -67 0
-45 -78 0
-45 -89 0
-45 -111 0
-45 -122 0
-56 -67 0
-56 -78 0
-56 -89 0
-56 -111 0
-56 -122 0
-67 -78 0
-67 -89 0
-67 -111 0
-67 -122 0
-78 -89 0
-78 -111 0
-78 -122 0
-89 -111 0
-89 -122 0
-111 -122 0
-2 -24 0
-2 -35 0
-2 -46 0
-2 -57 0
-2 -68 0
-2 -79 0
-2 -90 0
-2 -101 0
-2 -123 0
-24 -35 0
-24 -46 0
-24 -57 0
-24 -68 0
-24 -79 0
-24 -90 0
-24 -101 0
-24 -123 0
-35 -46 0
-35 -57 0
-35 -68 0
-35 -79 0
-35 -90 0
-35 -101 0
-35 -123 0
-46 -57 0
-46 -68 0
-46 -79 0
-46 -90 0
-46 -101 0
-46 -123 0
-57 -68 0
-57 -79 0
-57 -90 0
-57 -101 0
-57 -123 0
-68 -79 0
-68 -90 0
-68 -101 0
-68 -123 0
-79 -90 0
-79 -101 0
-79 -123 0
-90 -101 0
-90 -123 0
-101 -123 0
-3 -14 0
-3 -36 0
-3 -47 0
-3 -58 0
-3 -69 0
-3 -80 0
-3 -91 0
-3 -102 0
-3 -113 0
-14 -36 0
-14 -47 0
-14 -58 0
-14 -69 0
-14 -80 0
-14 -91 0
-14 -102 0
-14 -113 0
-36 -47 0
-36 -58 0
-36 -69 0
-36 -80 0
-36 -91 0
-36 -102 0
-36 -113 0
-47 -58 0
-47 -69 0
-47 -80 0
-47 -91 0
-47 -102 0
-47 -113 0
-58 -69 0
-58 -80 0
-58 -91 0
-58 -102 0
-58 -113 0
-69 -80 0
-69 -91 0
-69 -102 0
-69 -113 0
-80 -91 0
-80 -102 0
-80 -113 0
-91 -102 0
-91 -113 0
-102 -113 0
-4 -15 0
-4 -26 0
-4 -48 0
-4 -59 0
-4 -70 0
-4 -81 0
-4 -92 0
-4 -103 0
-4 -114 0
-4 -125 0
-15 -26 0
-15 -48 0
-15 -59 0
-15 -70 0
-15 -81 0
-15 -92 0
-15 -103 0
-15 -114 0
-15 -125 0
-26 -48 0
-26 -59 0
-26 -70 0
-26 -81 0
-26 -92 0
-26 -103 0
-26 -114 0
-26 -125 0
-48 -59 0
-48 -70 0
-48 -81 0
-48 -92 0
-48 -103 0
-48 -114 0
-48 -125 0
-59 -70 0
-59 -81 0
-59 -92 0
-59 -103 0
-59 -114 0
-59 -125 0
-70 -81 0
-70 -92 0
-70 -103 0
-70 -114 0
-70 -125 0
-81 -92 0
-81 -103 0
-81 -114 0
-81 -125 0
-92 -103 0
-92 -114 0
-92 -125 0
-103 -114 0
-103 -125 0
-114 -125 0
-5 -16 0
-5 -27 0
-5 -38 0
-5 -60 0
-5 -71 0
-5 -82 0
-5 -93 0
-5 -104 0
-5 -115 0
-5 -126 0
-16 -27 0
-16 -38 0
-16 -60 0
-16 -71 0
-16 -82 0
-16 -93 0
-16 -104 0
-16 -115 0
-16 -126 0
-27 -38 0
-27 -60 0
-27 -71 0
-27 -82 0
-27 -93 0
-27 -104 0
-27 -115 0
-27 -126 0
-38 -60 0
-38 -71 0
-38 -82 0
-38 -93 0
-38 -104 0
-38 -115 0
-38 -126 0
-60 -71 0
-60 -82 0
-60 -93 0
-60 -104 0
-60 -115 0
-60 -126 0
-71 -82 0
-71 -93 0
-71 -104 0
-71 -115 0
-71 -126 0
-82 -93 0
-82 -104 0
-82 -115 0
-82 -126 0
-93 -104 0
-93 -115 0
-93 -126 0
-104 -115 0
-104 -126 0
-115 -126 0
-6 -17 0
-6 -28 0
-6 -39 0
-6 -50 0
-6 -72 0
-6 -83 0
-6 -94 0
-6 -105 0
-6 -116 0
-6 -127 0
-17 -28 0
-17 -39 0
-17 -50 0
-17 -72 0
-17 -83 0
-17 -94 0
-17 -105 0
-17 -116 0
-17 -127 0
-28 -39 0
-28 -50 0
-28 -72 0
-28 -83 0
-28 -94 0
-28 -105 0
-28 -116 0
-28 -127 0
-39 -50 0
-39 -72 0
-39 -83 0
-39 -94 0
-39 -105 0
-39 -116 0
-39 -127 0
-50 -72 0
-50 -83 0
-50 -94 0
-50 -105 0
-50 -116 0
-50 -127 0
-72 -83 0
-72 -94 0
-72 -105 0
-72 -116 0
-72 -127 0
-83 -94 0
-83 -105 0
-83 -116 0
-83 -127 0
-94 -105 0
-94 -116 0
-94 -127 0
-105 -116 0
-105 -127 0
-116 -127 0
-7 -18 0
-7 -29 0
-7 -40 0
-7 -51 0
-7 -62 0
-7 -84 0
-7 -95 0
-7 -106 0
-7 -117 0
-7 -128 0
-18 -29 0
-18 -40 0
-18 -51 0
-18 -62 0
-18 -84 0
-18 -95 0
-18 -106 0
-18 -117 0
-18 -128 0
-29 -40 0
-29 -51 0
-29 -62 0
-29 -84 0
-29 -95 0
-29 -106 0
-29 -117 0
-29 -128 0
-40 -51 0
-40 -62 0
-40 -84 0
-40 -95 0
-40 -106 0
-40 -117 0
-40 -128 0
-51 -62 0
-51 -84 0
-51 -95 0
-51 -106 0
-51 -117 0
-51 -128 0
-62 -84 0
-62 -95 0
-62 -106 0
-62 -117 0
-62 -128 0
-84 -95 0
-84 -106 0
-84 -117 0
-84 -128 0
-95 -106 0
-95 -117 0
-95 -128 0
-106 -117 0
-106 -128 0
-117 -128 0
-8 -19 0
-8 -30 0
-8 -41 0
-8 -52 0
-8 -63 0
-8 -74 0
-8 -96 0
-8 -107 0
-8 -118 0
-8 -129 0
-19 -30 0
-19 -41 0
-19 -52 0
-19 -63 0
-19 -74 0
-19 -96 0
-19 -107 0
-19 -118 0
-19 -129 0
-30 -41 0
-30 -52 0
-30 -63 0
-30 -74 0
-30 -96 0
-30 -107 0
-30 -118 0
-30 -129 0
-41 -52 0
-41 -63 0
-41 -74 0
-41 -96 0
-41 -107 0
-41 -118 0
-41 -129 0
-52 -63 0
-52 -74 0
-52 -96 0
-52 -107 0
-52 -118 0
-52 -129 0
-63 -74 0
-63 -96 0
-63 -107 0
-63 -118 0
-63 -129 0
-74 -96 0
-74 -107 0
-74 -118 0
-74 -129 0
-96 -107 0
-96 -118 0
-96 -129 0
-107 -118 0
-107 -129 0
-118 -129 0
-9 -20 0
-9 -31 0
-9 -42 0
-9 -53 0
-9 -64 0
-9 -75 0
-9 -86 0
-9 -108 0
-9 -119 0
-9 -130 0
-20 -31 0
-20 -42 0
-20 -53 0
-20 -64 0
-20 -75 0
-20 -86 0
-20 -108 0
-20 -119 0
-20 -130 0
-31 -42 0
-31 -53 0
-31 -64 0
-31 -75 0
-31 -86 0
-31 -108 0
-31 -119 0
-31 -130 0
-42 -53 0
-42 -64 0
-42 -75 0
-42 -86 0
-42 -108 0
-42 -119 0
-42 -130 0
-53 -64 0
-53 -75 0
-53 -86 0
-53 -108 0
-53 -119 0
-53 -130 0
-64 -75 0
-64 -86 0
-64 -108 0
-64 -119 0
-64 -130 0
-75 -86 0
-75 -108 0
-75 -119 0
-75 -130 0
-86 -108 0
-86 -119 0
-86 -130 0
-108 -119 0
-108 -130 0
-119 -130 0
-10 -21 0
-10 -32 0
-10 -43 0
-10 -54 0
-10 -65 0
-10 -76 0
-10 -87 0
-10 -98 0
-10 -109 0
-10 -120 0
-10 -131 0
-21 -32 0
-21 -43 0
-21 -54 0
-21 -65 0
-21 -76 0
-21 -87 0
-21 -98 0
-21 -109 0
-21 -120 0
-21 -131 0
-32 -43 0
-32 -54 0
-32 -65 0
-32 -76 0
-32 -87 0
-32 -98 0
-32 -109 0
-32 -120 0
-32 -131 0
-43 -54 0
-43 -65 0
-43 -76 0
-43 -87 0
-43 -98 0
-43 -109 0
-43 -120 0
-43 -131 0
-54 -65 0
-54 -76 0
-54 -87 0
-54 -98 0
-54 -109 0
-54 -120 0
-54 -131 0
-65 -76 0
-65 -87 0
-65 -98 0
-65 -109 0
-65 -120 0
-65 -131 0
-76 -87 0
-76 -98 0
-76 -109 0
-76 -120 0
-76 -131 0
-87 -98 0
-87 -109 0
-87 -120 0
-87 -131 0
-98 -109 0
-98 -120 0
-98 -131 0
-109 -120 0
-109 -131 0
-120 -131 0
-11 -22 0
-11 -33 0
-11 -44 0
-11 -55 0
-11 -66 0
-11 -77 0
-11 -88 0
-11 -99 0
-11 -110 0
-11 -121 0
-11 -132 0
-22 -33 0
-22 -44 0
-22 -55 0
-22 -66 0
-22 -77 0
-22 -88 0
-22 -99 0
-22 -110 0
-22 -121 0
-22 -132 0
-33 -44 0
-33 -55 0
-33 -66 0
-33 -77 0
-33 -88 0
-33 -99 0
-33 -110 0
-33 -121 0
-33 -132 0
-44 -55 0
-44 -66 0
-44 -77 0
-44 -88 0
-44 -99 0
-44 -110 0
-44 -121 0
-44 -132 0
-55 -66 0
-55 -77 0
-55 -88 0
-55 -99 0
-55 -110 0
-55 -121 0
-55 -132 0
-66 -77 0
-66 -88 0
-66 -99 0
-66 -110 0
-66 -121 0
-66 -132 0
-77 -88 0
-77 -99 0
-77 -110 0
-77 -121 0
-77 -132 0
-88 -99 0
-88 -110 0
-88 -121 0
-88 -132 0
-99 -110 0
-99 -121 0
-99 -132 0
-110 -121 0
-110 -132 0
-121 -132 0
2 3 4 5 6 7 8 9 10 11 -12 0
2 3 4 5 6 7 8 9 10 11 -23 0
2 3 4 5 6 7 8 9 10 11 -34 0
2 3 4 5 6 7 8 9 10 11 -45 0
2 3 4 5 6 7 8 9 10 11 -56 0
2 3 4 5 6 7 8 9 10 11 -67 0
2 3 4 5 6 7 8 9 10 11 -78 0
2 3 4 5 6 7 8 9 10 11 -89 0
2 3 4 5 6 7 8 9 10 11 -111 0
2 3 4 5 6 7 8 9 10 11 -122 0
12 14 15 16 17 18 19 20 21 22 -2 0
12 14 15 16 17 18 19 20 21 22 -24 0
12 14 15 16 17 18 19 20 21 22 -35 0
12 14 15 16 17 18 19 20 21 22 -46 0
12 14 15 16 17 18 19 20 21 22 -57 0
12 14 15 16 17 18 19 20 21 22 -68 0
12 14 15 16 17 18 19 20 21 22 -79 0
12 14 15 16 17 18 19 20 21 22 -90 0
12 14 15 16 17 18 19 20 21 22 -101 0
12 14 15 16 17 18 19 20 21 22 -123 0
23 24 26 27 28 29 30 31 32 33 -3 0
23 24 26 27 28 29 30 31 32 33 -14 0
23 24 26 27 28 29 30 31 32 33 -36 0
23 24 26 27 28 29 30 31 32 33 -47 0
23 24 26 27 28 29 30 31 32 33 -58 0
23 24 26 27 28 29 30 31 32 33 -69 0
23 24 26 27 28 29 30 31 32 33 -80 0
23 24 26 27 28 29 30 31 32 33 -91 0
23 24 26 27 28 29 30 31 32 33 -102 0
23 24 26 27 28 29 30 31 32 33 -113 0
34 35 36 38 39 40 41 42 43 44 -4 0
34 35 36 38 39 40 41 42 43 44 -15 0
34 35 36 38 39 40 41 42 43 44 -26 0
34 35 36 38 39 40 41 42 43 44 -48 0
34 35 36 38 39 40 41 42 43 44 -59 0
34 35 36 38 39 40 41 42 43 44 -70 0
34 35 36 38 39 40 41 42 43 44 -81 0
34 35 36 38 39 40 41 42 43 44 -92 0
34 35 36 38 39 40 41 42 43 44 -103 0
34 35 36 38 39 40 41 42 43 44 -114 0
34 35 36 38 39 40 41 42 43 44 -125 0
45 46 47 48 50 51 52 53 54 55 -5 0
45 46 47 48 50 51 52 53 54 55 -16 0
45 46 47 48 50 51 52 53 54 55 -27 0
45 46 47 48 50 51 52 53 54 55 -38 0
45 46 47 48 50 51 52 53 54 55 -60 0
45 46 47 48 50 51 52 53 54 55 -71 0
45 46 47 48 50 51 52 53 54 55 -82 0
45 46 47 48 50 51 52 53 54 55 -93 0
45 46 47 48 50 51 52 53 54 55 -104 0
45 46 47 48 50 51 52 53 54 55 -115 0
45 46 47 48 50 51 52 53 54 55 -126 0
56 57 58 59 60 62 63 64 65 66 -6 0
56 57 58 59 60 62 63 64 65 66 -17 0
56 57 58 59 60 62 63 64 65 66 -28 0
56 57 58 59 60 62 63 64 65 66 -39 0
56 57 58 59 60 62 63 64 65 66 -50 0
56 57 58 59 60 62 63 64 65 66 -72 0
56 57 58 59 60 62 63 64 65 66 -83 0
56 57 58 59 60 62 63 64 65 66 -94 0
56 57 58 59 60 62 63 64 65 66 -105 0
56 57 58 59 60 62 63 64 65 66 -116 0
56 57 58 59 60 62 63 64 65 66 -127 0
67 68 69 70 71 72 74 75 76 77 -7 0
67 68 69 70 71 72 74 75 76 77 -18 0
67 68 69 70 71 72 74 75 76 77 -29 0
67 68 69 70 71 72 74 75 76 77 -40 0
67 68 69 70 71 72 74 75 76 77 -51 0
67 68 69 70 71 72 74 75 76 77 -62 0
67 68 69 70 71 72 74 75 76 77 -84 0
67 68 69 70 71 72 74 75 76 77 -95 0
67 68 69 70 71 72 74 75 76 77 -106 0
67 68 69 70 71 72 74 75 76 77 -117 0
67 68 69 70 71 72 74 75 76 77 -128 0
78 79 80 81 82 83 84 86 87 88 -8 0
78 79 80 81 82 83 84 86 87 88 -19 0
78 79 80 81 82 83 84 86 87 88 -30 0
78 79 80 81 82 83 84 86 87 88 -41 0
78 79 80 81 82 83 84 86 87 88 -52 0
78 79 80 81 82 83 84 86 87 88 -63 0
78 79 80 81 82 83 84 86 87 88 -74 0
78 79 80 81 82 83 84 86 87 88 -96 0
78 79 80 81 82 83 84 86 87 88 -107 0
78 79 80 81 82 83 84 86 87 88 -118 0
78 79 80 81 82 83 84 86 87 88 -129 0
89 90 91 92 93 94 95 96 98 99 -9 0
89 90 91 92 93 94 95 96 98 99 -20 0
89 90 91 92 93 94 95 96 98 99 -31 0
89 90 91 92 93 94 95 96 98 99 -42 0
89 90 91 92 93 94 95 96 98 99 -53 0
89 90 91 92 93 94 95 96 98 99 -64 0
89 90 91 92 93 94 95 96 98 99 -75 0
89 90 91 92 93 94 95 96 98 99 -86 0
89 90 91 92 93 94 95 96 98 99 -108 0
89 90 91 92 93 94 95 96 98 99 -119 0
89 90 91 92 93 94 95 96 98 99 -130 0
101 102 103 104 105 106 107 108 109 110 -12 0
101 102 103 104 105 106 107 108 109 110 -23 0
101 102 103 104 105 106 107 108 109 110 -34 0
101 102 103 104 105 106 107 108 109 110 -45 0
101 102 103 104 105 106 107 108 109 110 -56 0
101 102 103 104 105 106 107 108 109 110 -67 0
101 102 103 104 105 106 107 108 109 110 -78 0
101 102 103 104 105 106 107 108 109 110 -89 0
101 102 103 104 105 106 107 108 109 110 -111 0
101 102 103 104 105 106 107 108 109 110 -122 0
101 102 103 104 105 106 107 108 109 110 2 3 4 5 6 7 8 9 10 11 0
111 113 114 115 116 117 118 119 120 121 -2 0
111 113 114 115 116 117 118 119 120 121 -24 0
111 113 114 115 116 117 118 119 120 121 -35 0
111 113 114 115 116 117 118 119 120 121 -46 0
111 113 114 115 116 117 118 119 120 121 -57 0
111 113 114 115 116 117 118 119 120 121 -68 0
111 113 114 115 116 117 118 119 120 121 -79 0
111 113 114 115 116 117 118 119 120 121 -90 0
111 113 114 115 116 117 118 119 120 121 -101 0
111 113 114 115 116 117 118 119 120 121 -123 0
111 113 114 115 116 117 118 119 120 121 12 14 15 16 17 18 19 20 21 22 0
122 123 125 126 127 128 129 130 131 132 -3 0
122 123 125 126 127 128 129 130 131 132 -14 0
122 123 125 126 127 128 129 130 131 132 -36 0
122 123 125 126 127 128 129 130 131 132 -47 0
122 123 125 126 127 128 129 130 131 132 -58 0
122 123 125 126 127 128 129 130 131 132 -69 0
122 123 125 126 127 128 129 130 131 132 -80 0
122 123 125 126 127 128 129 130 131 132 -91 0
122 123 125 126 127 128 129 130 131 132 -102 0
122 123 125 126 127 128 129 130 131 132 -113 0
122 123 125 126 127 128 129 130 131 132 23 24 26 27 28 29 30 31 32 33 0
